&control
   title = 'CHNO'
   calculation = 'vc-relax'
   nstep = 1000
   restart_mode = 'from_scratch'
   pseudo_dir = '/home/c/cmpm4/Pseudo/SSSP'
   outdir = './outdir/'
   etot_conv_thr = 1.0D-5
   forc_conv_thr = 1.0D-5
/

&system
   ibrav = 0
   nat = 68
   ntyp = 4.0
   ecutwfc = 60.00
   ecutrho = 480.00
   occupations = 'smearing'
   degauss = 0.01
   vdw_corr = 'grimme-d3'
   dftd3_version = 6
/

&electrons
conv_thr = 1.D-6
mixing_beta = 0.5D0
diagonalization = 'david'
/

&ions
ion_dynamics = 'bfgs'
/

&cell
cell_dynamics = 'bfgs'
press_conv_thr = 0.1
cell_factor = 3.0
/

ATOMIC_SPECIES
   H  1.008  H.pbe-rrkjus_psl.1.0.0.UPF
   C  12.011 C.pbe-n-kjpaw_psl.1.0.0.UPF
   N  14.00  N.pbe-n-radius_5.UPF
   O  16.00  O.pbe-n-kjpaw_psl.0.1.UPF

CELL_PARAMETERS angstrom
8.602387827369553 0.0 0.0
-9.9631053182641 2.9064016236212 0.0
-12.9030381291065 -8.22458862678905 27.385635709153842
ATOMIC_POSITIONS angstrom
O -8.56418 -2.50824 18.8767
O -8.60441 -2.24717 21.0907
O -6.10358 -2.13886 17.3445
O -4.14408 -1.56016 16.4727
O -6.1051 -3.02778 19.8148
O -1.65667 1.22226 5.13738
O -1.71799 1.33329 7.36552
O -0.453498 3.08933 3.57057
O 1.56999 3.04057 2.65158
O -9.18982 3.59805 6.15895
O -4.59248 -0.176758 12.0535
O -4.64559 -0.0837036 14.2766
O -2.97458 1.23267 10.3312
O -0.378574 0.170221 9.56424
O -2.15412 -0.756405 12.9435
O -12.1455 -3.719 25.6553
O -12.132 -3.81291 27.8781
O -9.64031 -4.35633 24.143
O -7.79866 -3.48203 23.2486
O -9.6803 -4.40369 26.7972
N -4.13574 -4.25155 23.1329
N -4.80272 -3.77097 22.0793
N -9.24214 -2.36386 19.9721
N -4.81202 -2.08448 17.4536
N -6.08173 1.69748 9.65168
N -6.6558 1.30377 8.51227
N -2.34645 1.32192 6.22932
N 0.828477 3.23781 3.69618
N -8.96481 -1.34923 16.5147
N -9.56785 -1.06454 15.3595
N -5.27518 -0.205882 13.1503
N -10.7282 2.23913 10.5231
N -3.31679 2.84041 2.76539
N -16.9191 -4.9926 29.0798
N -12.8024 -3.75045 26.7724
N -8.42503 -3.92048 24.2936
H -10.8178 -3.07894 22.0058
H -2.21688 -1.96866 17.8907
H -4.0413 1.70001 8.24278
H -5.20825 3.68048 4.10671
H -6.91665 -0.646957 15.2151
H 1.80238 -0.317569 10.9491
H -14.3543 -4.29776 28.873
H -14.4421 -3.48121 24.6973
C -4.12425 -3.13735 21.0153
C -11.358 -2.87515 21.0937
C -4.81448 -2.87227 19.8299
C -2.75509 -2.26259 18.765
C -10.6634 -2.47106 19.9559
C -4.13783 -2.40914 18.6891
C 2.70546 1.15977 7.33433
C -4.52313 1.37717 7.34479
C -7.89637 3.7348 6.14486
C -5.78475 3.81503 4.99547
C -3.77218 1.22029 6.18649
C -7.1649 3.6077 4.94826
C -8.81208 -0.766215 14.2079
C -7.42793 -0.580063 14.2708
C -0.854565 -0.705266 12.9796
C 1.24858 -0.387812 11.8668
C -6.69314 -0.37264 13.1011
C -0.12667 -0.57103 11.7968
C -16.2681 -4.47525 27.9382
C -14.901 -4.20828 27.9552
C -8.38314 -4.31809 26.754
C -14.9523 -3.77204 25.5918
C -14.2273 -3.88673 26.7786
C -7.72824 -4.00714 25.5523

K_POINTS automatic
4 4 4 0 0 0