chk=charges 
# PBEPBE/6-311G opt pop=full 

Title 

0 1
O     -2.4909000000   -0.8483000000   -0.0001000000
O     -1.4330000000    3.0732000000   -0.0001000000
O     -3.0585000000    1.5978000000   -0.0006000000
O      3.6887000000   -0.3474000000   -0.0006000000
O      3.1305000000    1.7757000000   -0.0004000000
N     -1.8430000000    1.8919000000    0.0000000000
N      2.8216000000    0.5595000000    0.0000000000
N     -0.5824000000   -2.8522000000   -0.0002000000
N     -0.8289000000   -3.9101000000   -0.0005000000
C     -0.8827000000    0.8339000000    0.0003000000
C      1.4483000000    0.1984000000    0.0005000000
C      0.4663000000    1.1890000000    0.0004000000
C     -1.2496000000   -0.5117000000    0.0001000000
C      1.0812000000   -1.1473000000    0.0006000000
C     -0.2677000000   -1.5024000000    0.0005000000
H      0.7629000000    2.2353000000    0.0003000000
H      1.8270000000   -1.9393000000    0.0005000000

