&control
   title = 'CHNO'
   calculation = 'vc-relax'
   nstep = 1000
   restart_mode = 'from_scratch'
   pseudo_dir = '/home/c/cmpm4/Pseudo/SSSP'
   outdir = './outdir/'
   etot_conv_thr = 1.0D-5
   forc_conv_thr = 1.0D-5
/

&system
   ibrav = 0
   nat = 68
   ntyp = 4.0
   ecutwfc = 60.00
   ecutrho = 480.00
   occupations = 'smearing'
   degauss = 0.01
   vdw_corr = 'grimme-d3'
   dftd3_version = 6
/

&electrons
conv_thr = 1.D-6
mixing_beta = 0.5D0
diagonalization = 'david'
/

&ions
ion_dynamics = 'bfgs'
/

&cell
cell_dynamics = 'bfgs'
press_conv_thr = 0.1
cell_factor = 3.0
/

ATOMIC_SPECIES
   H  1.008  H.pbe-rrkjus_psl.1.0.0.UPF
   C  12.011 C.pbe-n-kjpaw_psl.1.0.0.UPF
   N  14.00  N.pbe-n-radius_5.UPF
   O  16.00  O.pbe-n-kjpaw_psl.0.1.UPF

CELL_PARAMETERS angstrom
55.6610993899233 0.0 0.0
-7.1990523147454 6.908245633173878 0.0
-7.12579407733731 3.56424226677252 9.36009121737226
ATOMIC_POSITIONS angstrom
O -9.49573 6.44302 -0.895082
O -10.3548 4.37201 6.88065
O -3.96231 2.21022 4.44188
O -11.4008 6.95954 3.88209
O -5.76228 3.44822 2.70498
O -9.3353 7.64167 6.5288
O -10.4567 9.20781 7.66611
O 1.26253 1.14066 1.47031
O 1.85489 2.11773 -0.454989
O 0.0530773 3.07858 3.01824
O -12.9654 3.7265 4.92688
O -14.5328 5.31837 4.84158
O -12.9601 5.27188 1.60845
O 42.7768 4.14456 -0.320603
O -15.007 7.04943 1.61275
O 37.8046 7.4255 3.56536
O -11.4844 2.24605 2.41387
O -6.36443 3.15799 7.31966
O -13.6407 8.09219 6.26592
O -6.68153 5.10633 5.44321
N -6.81458 4.96056 0.787079
N -6.08695 4.18972 -0.0375037
N -3.08269 0.52093 -1.21814
N -4.17003 1.30405 3.53107
N -3.18963 5.54742 3.34682
N -2.13282 4.72697 3.22436
N -9.59323 8.23324 7.65923
N 1.05186 2.05481 0.568053
N -9.59569 3.30141 -0.2563
N -8.9881 2.26643 0.346879
N -13.877 4.43106 5.53337
N -13.2461 5.20668 0.340174
N -7.62047 7.09818 3.95379
N -8.47244 6.17347 3.48374
N -10.6016 1.7795 3.24984
N -6.79787 2.4344 6.3286
H -11.8427 6.20421 7.76349
H -10.2356 7.01123 1.45193
H -3.13079 5.36485 0.813993
H -0.369803 2.99455 -1.47457
H -15.4589 5.94091 7.10733
H -20.1028 9.39453 7.12238
H -10.1605 4.38578 2.67326
H -15.9544 8.03027 5.10244
C -5.2741 3.11147 0.4128
C -4.59775 2.36396 -0.556247
C -5.12754 2.77042 1.77646
C -3.65701 0.938491 1.15616
C -3.77891 1.27723 -0.202832
C -4.31933 1.67664 2.149
C -1.66572 4.27673 1.95886
C -2.28213 4.69499 0.768049
C -0.562762 3.40773 1.90218
C -0.728609 3.35961 -0.520994
C -1.82176 4.24312 -0.4809
C -0.0876891 2.93685 0.656543
C -8.13443 1.37403 -0.357098
C -15.003 5.11234 7.63285
C -7.53637 0.306762 0.33472
C -13.5671 3.16489 7.64273
C -14.1528 4.23372 6.93949
C -13.8783 6.31464 -0.342854
C -8.52018 4.83648 3.97044
C -9.48762 3.98687 3.42267
C -7.62964 4.33695 4.95167
C -8.68835 2.15313 4.7802
C -9.58987 2.64234 3.81909
C -7.71004 2.98327 5.35438

K_POINTS automatic
4 4 4 0 0 0