&control
   title = 'CHNO'
   calculation = 'vc-relax'
   nstep = 1000
   restart_mode = 'from_scratch'
   pseudo_dir = '/home/c/cmpm4/Pseudo/SSSP'
   outdir = './outdir/'
   etot_conv_thr = 1.0D-5
   forc_conv_thr = 1.0D-5
/

&system
   ibrav = 0
   nat = 68
   ntyp = 4.0
   ecutwfc = 60.00
   ecutrho = 480.00
   occupations = 'smearing'
   degauss = 0.01
   vdw_corr = 'grimme-d3'
   dftd3_version = 6
/

&electrons
conv_thr = 1.D-6
mixing_beta = 0.5D0
diagonalization = 'david'
/

&ions
ion_dynamics = 'bfgs'
/

&cell
cell_dynamics = 'bfgs'
press_conv_thr = 0.1
cell_factor = 3.0
/

ATOMIC_SPECIES
   H  1.008  H.pbe-rrkjus_psl.1.0.0.UPF
   C  12.011 C.pbe-n-kjpaw_psl.1.0.0.UPF
   N  14.00  N.pbe-n-radius_5.UPF
   O  16.00  O.pbe-n-kjpaw_psl.0.1.UPF

CELL_PARAMETERS angstrom
11.32740226767779 0.0 0.0
4.25951887838731 5.117588714027304 0.0
9.07057273243094 12.8722819156834 50.81720198724638
ATOMIC_POSITIONS angstrom
O -1.393 0.741952 -0.476181
O 8.5346 1.94424 0.786473
O 17.5268 15.2936 44.4066
O 18.3058 13.453 45.4008
O 15.6182 16.5214 45.8131
O 4.60148 0.913588 0.155864
O 3.27802 2.40133 -0.859505
O 9.32166 15.77 46.1908
O 0.873313 3.49183 -2.56501
O 15.1121 12.634 44.8896
O 11.2519 7.061 13.9851
O 9.59244 8.46456 14.5088
O 11.1938 5.55167 11.0211
O 14.7017 8.60086 10.6118
O 9.03738 7.24382 11.1262
O 6.91338 8.92455 31.239
O 5.25397 10.3282 31.7626
O 11.1152 12.5325 28.2752
O 10.3635 10.4641 27.8659
O 4.69929 9.10717 28.38
N 9.80402 12.8966 47.3639
N 5.66284 4.56378 -2.44394
N 8.94772 1.58824 -0.39606
N 17.6817 14.5923 45.4922
N 12.1493 15.4324 44.9287
N 13.0906 14.4747 44.9344
N 4.15385 1.4421 -0.946946
N 20.5046 16.5561 47.2178
N 5.61781 8.18697 13.1572
N 6.74139 7.86177 12.4964
N 10.732 8.25298 13.9149
N 10.2373 4.67196 11.1025
N 12.6071 10.0506 30.4108
N 13.7306 9.72527 29.7501
N 6.39353 10.1165 31.1687
N 10.1587 11.6529 28.3565
H 6.96466 3.42031 -0.528788
H 9.52973 0.96274 -2.94285
H 3.29835 2.24042 -3.37712
H 10.3248 4.72669 -1.41066
H 5.70627 5.71438 13.7325
H 13.0205 8.06815 12.4988
H 16.9549 12.6956 30.9862
H 8.68219 9.93157 29.7528
C 6.69928 3.60708 -2.64128
C 7.30421 3.07696 -1.49821
C 16.1983 16.0488 46.8954
C 8.74187 1.69743 -2.86243
C 8.32941 2.12277 -1.58911
C 17.2288 15.0809 46.78
C 13.6221 13.9412 46.1403
C 4.08362 1.49895 -3.42442
C 14.6459 12.9825 46.0707
C 9.90691 5.13781 -2.31994
C 4.62892 0.98596 -2.23453
C 19.4584 17.5555 47.2549
C 7.27099 6.54166 12.5052
C 6.62201 5.50387 13.1961
C 8.46087 6.27462 11.8068
C 12.5986 9.06495 12.4976
C 7.14518 4.19802 13.1994
C 9.01064 4.97169 11.8045
C 14.2602 8.40514 29.7589
C 17.8706 12.485 30.4498
C 8.38221 13.2556 29.0606
C 8.26025 10.9284 29.7515
C 7.06635 11.1791 30.4533
C 8.93193 11.9527 29.0584

K_POINTS automatic
4 4 4 0 0 0