&control
   title = 'CHNO'
   calculation = 'vc-relax'
   nstep = 1000
   restart_mode = 'from_scratch'
   pseudo_dir = '/home/c/cmpm4/Pseudo/SSSP'
   outdir = './outdir/'
   etot_conv_thr = 1.0D-5
   forc_conv_thr = 1.0D-5
/

&system
   ibrav = 0
   nat = 68
   ntyp = 4.0
   ecutwfc = 60.00
   ecutrho = 480.00
   occupations = 'smearing'
   degauss = 0.01
   vdw_corr = 'grimme-d3'
   dftd3_version = 6
/

&electrons
conv_thr = 1.D-6
mixing_beta = 0.5D0
diagonalization = 'david'
/

&ions
ion_dynamics = 'bfgs'
/

&cell
cell_dynamics = 'bfgs'
press_conv_thr = 0.1
cell_factor = 3.0
/

ATOMIC_SPECIES
   H  1.008  H.pbe-rrkjus_psl.1.0.0.UPF
   C  12.011 C.pbe-n-kjpaw_psl.1.0.0.UPF
   N  14.00  N.pbe-n-radius_5.UPF
   O  16.00  O.pbe-n-kjpaw_psl.0.1.UPF

CELL_PARAMETERS angstrom
6.192309124283413 0.0 0.0
-5.88965727258588 6.669914239898051 0.0
9.93180489439403 -9.43820399924583 18.37209395250183
ATOMIC_POSITIONS angstrom
O 3.21854 0.0857156 8.37215
O 4.91469 0.684896 7.05843
O -0.333261 5.07745 8.67769
O -0.725594 2.89476 8.83289
O 11.2226 -3.63436 25.0752
O 3.91635 -0.27196 16.5787
O 2.60629 -0.139064 14.7831
O 7.48577 -2.58408 20.503
O 8.27123 -4.65588 20.6525
O 7.25492 -1.54652 18.0517
O 3.31588 -1.37985 12.4544
O 4.56337 -0.229737 11.0022
O 4.46402 2.38436 13.3992
O 5.45254 0.595219 14.2815
O -0.316678 3.74418 11.6187
O 12.0124 -6.24291 22.2348
O 6.60616 -0.0338276 20.1215
O 10.3817 -8.19554 23.2819
O 8.93955 -7.28038 21.8444
O 3.96015 -0.974755 19.3075
N 8.69236 -4.20714 23.4114
N 7.44101 -4.06167 23.8684
N 3.70546 0.890061 7.47844
N -0.0683544 3.8701 8.28163
N 6.27036 -2.23479 14.2193
N 6.78984 -1.96047 15.4207
N 2.8927 0.25713 15.9801
N 7.86244 -3.67313 19.9075
N -3.02033 4.35014 9.64502
N 2.04418 4.16194 10.3407
N 3.45946 -0.344229 11.6798
N 5.41447 1.49764 13.3478
N 4.57272 -3.8249 16.4404
N 4.40093 -2.88878 17.3863
N 11.8795 -5.95832 20.979
N 3.97997 -1.48573 22.0889
H 8.38472 -6.50618 24.3812
H 1.23837 1.55882 8.21161
H 1.84788 2.32937 14.6084
H 2.49869 0.789567 18.53
H 3.65548 2.03527 10.4714
H 7.19328 -0.407252 12.7556
H 11.2953 -5.22996 18.4701
H 11.1659 -3.91244 22.5402
C 6.80234 -5.07833 24.6211
C 13.5922 -6.32996 24.7874
C 11.7388 -4.83224 25.1859
C 1.73102 2.33481 7.64208
C 3.01531 2.10086 7.14273
C 1.13106 3.5955 7.53086
C 7.36292 -2.97244 16.2238
C 7.73302 -4.20641 15.6796
C 7.48496 -2.75137 17.5974
C 8.12412 -5.05743 17.8979
C 2.28144 1.43326 16.5175
C 7.80924 -3.81833 18.4675
C 1.77269 2.93207 10.9823
C 2.7095 1.89364 10.9678
C 0.567018 2.77582 11.6692
C 1.22538 0.532759 12.2842
C 2.44971 0.684765 11.6195
C 0.316485 1.59954 12.4054
C 4.55014 -3.17414 18.7676
C 11.1087 -4.45226 19.1987
C 4.29327 -2.17214 19.7153
C 11.0308 -3.7092 21.4952
C 11.31 -4.71197 20.56
C 4.37792 -2.45029 21.0938

K_POINTS automatic
4 4 4 0 0 0