&control
   title = 'CHNO'
   calculation = 'vc-relax'
   nstep = 1000
   restart_mode = 'from_scratch'
   pseudo_dir = '/home/c/cmpm4/Pseudo/SSSP'
   outdir = './outdir/'
   etot_conv_thr = 1.0D-5
   forc_conv_thr = 1.0D-5
/

&system
   ibrav = 0
   nat = 68
   ntyp = 4.0
   ecutwfc = 60.00
   ecutrho = 480.00
   occupations = 'smearing'
   degauss = 0.01
   vdw_corr = 'grimme-d3'
   dftd3_version = 6
/

&electrons
conv_thr = 1.D-6
mixing_beta = 0.5D0
diagonalization = 'david'
/

&ions
ion_dynamics = 'bfgs'
/

&cell
cell_dynamics = 'bfgs'
press_conv_thr = 0.1
cell_factor = 3.0
/

ATOMIC_SPECIES
   H  1.008  H.pbe-rrkjus_psl.1.0.0.UPF
   C  12.011 C.pbe-n-kjpaw_psl.1.0.0.UPF
   N  14.00  N.pbe-n-radius_5.UPF
   O  16.00  O.pbe-n-kjpaw_psl.0.1.UPF

CELL_PARAMETERS angstrom
3.9258785943774797 0.0 0.0
5.1476545247532 7.212559840749984 0.0
-24.3785643590126 -9.59120370817669 59.796913558336016
ATOMIC_POSITIONS angstrom
O -14.7989 -6.65995 41.9888
O -19.817 -8.3036 43.0371
O -10.2092 -0.901001 35.855
O -15.3281 -6.20833 37.022
O -11.7809 -2.76821 37.0052
O -20.0238 -8.24733 48.1624
O -20.6207 -8.98144 50.1879
O -16.7954 -5.55882 44.2636
O -12.8519 -3.33013 44.0872
O -18.0827 -6.27667 46.5557
O 1.27209 -0.0459443 -2.88379
O 0.764975 -0.796548 -0.840228
O 4.32772 2.70172 -6.74149
O 4.24943 4.93584 -6.87535
O 3.13561 1.94521 -4.39352
O -12.4663 -2.98303 33.957
O -13.4747 -4.67653 35.0101
O -9.05074 -4.47849 27.836
O -9.04085 -2.56073 28.9836
O -10.6613 -6.32256 28.9809
N -12.9374 -4.74234 40.381
N -12.5036 -4.10985 39.2787
N -15.5076 -7.74969 41.9232
N -15.5314 -7.49371 36.9862
N 6.22514 3.59324 -9.1663
N -18.0991 -6.08876 49.2922
N -20.6558 -9.1191 48.8934
N -16.8393 -4.39188 44.837
N 3.25321 2.18251 -0.312769
N 3.24791 2.1027 -1.65366
N 0.673499 -0.924286 -2.13291
N 4.27807 3.85807 -6.1453
N -10.5977 -1.07627 32.362
N -10.1665 -0.444236 31.2586
N -13.1464 -4.09113 33.8947
N -9.24478 -3.84663 28.9575
H -11.6887 -2.83999 41.4945
H -14.9802 -6.7433 39.4818
H -16.799 -3.90692 50.154
H -15.7481 -2.42334 46.2593
H 4.59821 4.27003 -0.832552
H 5.44907 5.80252 -4.75813
H -14.5002 -6.38146 33.4731
H -12.6254 -3.08714 31.4509
C -11.7762 -2.89054 39.3451
C -11.4217 -2.3268 40.581
C -11.4236 -2.23529 38.1537
C -15.5335 -7.67191 39.4456
C -15.8721 -8.32166 40.6463
C -15.8797 -8.21309 38.1931
C -17.4485 -5.11096 48.4923
C -16.811 -4.00501 49.0772
C -17.4591 -5.24955 47.0946
C -16.2286 -3.16514 46.8841
C -16.1891 -3.0261 48.2835
C -16.8471 -4.27256 46.2761
C 3.86304 3.08718 -2.47415
C 4.53068 4.18576 -1.90881
C 3.78421 2.96532 -3.87182
C 5.0026 5.05245 -4.11813
C 5.11266 5.17432 -2.72114
C 4.35314 3.9533 -4.70701
C -14.584 -6.43899 31.3226
C -14.2278 -5.87346 32.5576
C -14.2283 -5.78824 30.1294
C -13.1842 -4.01265 31.4176
C -13.5231 -4.65953 32.6198
C -9.60494 -4.55642 30.1665

K_POINTS automatic
4 4 4 0 0 0