&control
   title = 'CHNO'
   calculation = 'vc-relax'
   nstep = 1000
   restart_mode = 'from_scratch'
   pseudo_dir = '/home/c/cmpm4/Pseudo/SSSP'
   outdir = './outdir/'
   etot_conv_thr = 1.0D-5
   forc_conv_thr = 1.0D-5
/

&system
   ibrav = 0
   nat = 68
   ntyp = 4.0
   ecutwfc = 60.00
   ecutrho = 480.00
   occupations = 'smearing'
   degauss = 0.01
   vdw_corr = 'grimme-d3'
   dftd3_version = 6
/

&electrons
conv_thr = 1.D-6
mixing_beta = 0.5D0
diagonalization = 'david'
/

&ions
ion_dynamics = 'bfgs'
/

&cell
cell_dynamics = 'bfgs'
press_conv_thr = 0.1
cell_factor = 3.0
/

ATOMIC_SPECIES
   H  1.008  H.pbe-rrkjus_psl.1.0.0.UPF
   C  12.011 C.pbe-n-kjpaw_psl.1.0.0.UPF
   N  14.00  N.pbe-n-radius_5.UPF
   O  16.00  O.pbe-n-kjpaw_psl.0.1.UPF

CELL_PARAMETERS angstrom
8.796735546782283 0.0 0.0
-1.24206180160282 3.0504979144735804 0.0
-15.6849677463024 -2.04342547640997 27.3905034375369
ATOMIC_POSITIONS angstrom
O 0.297925 2.84743 7.96764
O -0.521349 3.45511 5.98287
O -4.52092 1.70695 11.5404
O -1.83729 0.50257 11.6867
O 2.95472 2.06747 9.1695
O -3.43906 2.50407 19.1889
O -5.13588 1.2073 18.5214
O -12.3048 0.22884 25.2433
O -11.1865 1.45515 23.7428
O -6.01913 -0.082048 24.1876
O -4.49406 2.38073 16.1522
O -4.38361 3.19518 14.0808
O -1.82929 1.5475 17.031
O -9.15466 2.76018 18.1948
O -1.78508 2.50075 14.4423
O 2.10918 3.87215 2.31114
O -13.4073 1.59938 27.4869
O 4.71524 3.23395 3.39526
O -1.19569 1.39954 4.27356
O -10.8376 0.991992 28.1442
N 3.54719 1.37361 5.20399
N 3.34331 1.73899 6.47774
N -0.726743 3.00772 7.18332
N -3.77028 2.65595 10.9859
N -9.52773 1.79386 20.9922
N -8.7626 2.0483 22.0649
N -4.62289 2.00957 19.4019
N -12.0975 0.571545 24.0092
N 0.530252 2.80602 11.0754
N -0.233512 2.72737 12.1772
N -5.08943 2.70279 15.0472
N -9.5421 2.2584 17.0598
N -8.64846 0.597972 24.7583
N -9.35623 0.704422 25.8897
N -14.1519 1.71747 28.5424
N 5.90206 3.74804 3.28597
H 5.86388 2.31647 5.76431
H -1.52982 3.21291 9.70067
H -7.24298 1.6567 19.8883
H -11.1196 -0.0910569 21.6557
H -6.45401 2.71498 12.7735
H -6.89867 2.3377 17.002
H -6.76498 1.2176 26.3215
H -0.249208 4.00224 3.13421
C 4.40328 2.15024 7.32454
C -3.11048 2.4158 6.81711
C 4.16594 2.26946 8.69888
C -2.32067 2.90577 9.03956
C -2.0614 2.78653 7.67422
C -3.58263 2.62217 9.56685
C -7.36241 2.24571 21.9554
C -6.69443 2.0212 20.7429
C -5.39931 -0.326242 23.0594
C -3.38433 -0.268468 21.7258
C -5.31803 2.27053 20.6285
C -4.0316 -0.0348668 22.9391
C 0.334152 2.6047 13.4699
C -7.08353 2.65113 13.6377
C -0.487863 2.48048 14.5962
C -7.33292 2.4406 16.0241
C -6.50814 2.59055 14.9067
C -8.72231 2.38485 15.8867
C -8.75247 1.06919 27.1153
C -7.37739 1.30047 27.2046
C -9.54764 1.17505 28.2573
C -0.702357 3.75984 2.18244
C -15.5779 1.59157 28.4376
C 6.70662 3.56465 2.10632

K_POINTS automatic
4 4 4 0 0 0