&control
   title = 'CHNO'
   calculation = 'vc-relax'
   nstep = 1000
   restart_mode = 'from_scratch'
   pseudo_dir = '/home/c/cmpm4/Pseudo/SSSP'
   outdir = './outdir/'
   etot_conv_thr = 1.0D-5
   forc_conv_thr = 1.0D-5
/

&system
   ibrav = 0
   nat = 68
   ntyp = 4.0
   ecutwfc = 60.00
   ecutrho = 480.00
   occupations = 'smearing'
   degauss = 0.01
   vdw_corr = 'grimme-d3'
   dftd3_version = 6
/

&electrons
conv_thr = 1.D-6
mixing_beta = 0.5D0
diagonalization = 'david'
/

&ions
ion_dynamics = 'bfgs'
/

&cell
cell_dynamics = 'bfgs'
press_conv_thr = 0.1
cell_factor = 3.0
/

ATOMIC_SPECIES
   H  1.008  H.pbe-rrkjus_psl.1.0.0.UPF
   C  12.011 C.pbe-n-kjpaw_psl.1.0.0.UPF
   N  14.00  N.pbe-n-radius_5.UPF
   O  16.00  O.pbe-n-kjpaw_psl.0.1.UPF

CELL_PARAMETERS angstrom
7.5203295059787845 0.0 0.0
8.66373149172807 28.796943715208492 0.0
-0.443084444328431 0.311566414236044 3.37444449125766
ATOMIC_POSITIONS angstrom
O 8.33732 25.9949 4.13819
O 6.30816 25.1171 3.82005
O 12.2504 21.481 1.9662
O 12.1567 23.7051 1.96543
O 10.0093 20.196 2.35809
O 3.96796 4.35562 3.32032
O 1.95758 3.42532 3.04612
O 9.09958 28.6548 1.24916
O 8.96814 30.8747 1.20819
O 14.4619 27.3214 1.9321
O 8.29507 11.4866 2.62128
O 6.28536 10.5625 2.32042
O 4.32823 7.30799 3.92311
O 4.1889 9.52742 3.85748
O 2.59084 5.66475 1.16027
O 4.50687 19.1044 4.18735
O 10.5523 17.7309 1.23299
O 8.59274 14.346 3.05303
O 8.50511 16.5536 2.86056
O 6.42852 13.0927 3.81878
N 7.598 19.1335 2.15467
N 7.2154 20.2456 2.79601
N 7.60005 24.9969 3.75695
N 11.5853 22.5667 2.22495
N 10.6235 27.1511 3.17487
N 11.871 27.2227 2.69737
N 11.9139 32.1292 2.97159
N 8.42214 29.7335 1.50398
N 6.30333 5.49201 2.48678
N 7.53567 5.56491 1.97199
N 7.57866 10.4674 2.25946
N 3.64454 8.3871 4.15943
N 3.05243 12.7108 1.71592
N 4.29872 12.7516 1.23351
N 3.8579 17.988 4.33979
N 7.92926 15.4483 3.22104
H 6.43064 22.5872 3.59528
H 10.1398 24.6372 3.03724
H 10.8365 29.6775 3.0738
H 14.4196 31.8144 2.1479
H 6.50314 8.01808 2.35719
H 2.57066 10.1574 1.4498
H 10.7795 15.2285 1.39349
H 6.40777 17.5884 3.68523
C 8.0552 21.3814 2.91379
C 7.46619 22.5836 3.29516
C 9.43771 21.3407 2.63344
C 9.56754 23.7254 3.01075
C 8.20958 23.7635 3.34613
C 10.2003 22.53 2.64237
C 12.5252 28.4648 2.5118
C 11.8633 29.6774 2.74187
C 13.8714 28.4689 2.1345
C 13.8954 30.8788 2.24194
C 12.5498 30.8898 2.62829
C 14.5709 29.6827 1.96453
C 8.18812 6.80702 1.78228
C 7.52878 8.01848 2.02159
C 2.01072 6.8115 1.39514
C 2.04294 9.22086 1.5308
C 8.21604 9.23034 1.91302
C 2.71526 8.02492 1.24218
C 4.50531 14.2883 4.31779
C 3.84472 15.5175 4.44216
C 5.84624 14.2571 3.93311
C 5.87687 16.6688 3.83553
C 4.52427 16.7194 4.19628
C 6.55136 15.4495 3.667

K_POINTS automatic
4 4 4 0 0 0