&control
   title = 'CHNO'
   calculation = 'vc-relax'
   nstep = 1000
   restart_mode = 'from_scratch'
   pseudo_dir = '/home/c/cmpm4/Pseudo/SSSP'
   outdir = './outdir/'
   etot_conv_thr = 1.0D-5
   forc_conv_thr = 1.0D-5
/

&system
   ibrav = 0
   nat = 68
   ntyp = 4.0
   ecutwfc = 60.00
   ecutrho = 480.00
   occupations = 'smearing'
   degauss = 0.01
   vdw_corr = 'grimme-d3'
   dftd3_version = 6
/

&electrons
conv_thr = 1.D-6
mixing_beta = 0.5D0
diagonalization = 'david'
/

&ions
ion_dynamics = 'bfgs'
/

&cell
cell_dynamics = 'bfgs'
press_conv_thr = 0.1
cell_factor = 3.0
/

ATOMIC_SPECIES
   H  1.008  H.pbe-rrkjus_psl.1.0.0.UPF
   C  12.011 C.pbe-n-kjpaw_psl.1.0.0.UPF
   N  14.00  N.pbe-n-radius_5.UPF
   O  16.00  O.pbe-n-kjpaw_psl.0.1.UPF

CELL_PARAMETERS angstrom
28.534740058736677 0.0 0.0
3.2914112471266 7.438009974132161 0.0
0.0435366596818654 -0.258820710587289 3.214538040144832
ATOMIC_POSITIONS angstrom
O 21.5316 7.60326 1.26396
O 23.0655 5.9942 1.32143
O 16.5799 4.30933 2.02346
O 17.1266 6.37675 2.63207
O 18.0149 2.39326 3.12054
O 5.32296 4.69269 3.31369
O 7.12326 4.05834 0.945404
O 32.8006 8.05738 0.504829
O 29.4835 2.60755 1.52331
O 6.36547 6.76172 1.83875
O 24.4897 3.14917 2.14754
O 26.696 2.89528 1.84528
O 25.844 5.10824 0.677803
O 25.0436 6.63879 2.90973
O 28.43 4.43934 3.32495
O 12.587 6.87229 0.733038
O 14.5768 5.82351 3.23012
O 12.6537 9.09102 2.31191
O 9.25008 3.86229 2.50402
O 15.0949 8.15362 1.8419
N 24.8074 8.87627 1.45218
N 23.6939 9.23637 0.80804
N 21.8947 6.39921 0.951365
N 17.4211 5.11779 2.58532
N 10.3261 6.78687 2.56216
N 9.07835 6.70778 2.08647
N 5.87277 3.94167 0.642696
N 4.90365 9.02509 1.08328
N 31.9399 5.81861 1.87969
N 30.8192 5.37712 2.45487
N 25.5566 2.40643 2.22385
N 26.0729 6.01635 3.37478
N 19.0492 8.91523 1.41258
N 17.7485 8.62032 1.29335
N 13.3469 5.85673 0.472217
N 9.87496 2.81767 2.05946
H 22.1735 3.75212 0.9525
H 19.5296 6.64153 3.13937
H 10.1918 9.03737 1.41007
H 3.20472 3.60901 0.57842
H 30.808 8.0319 2.15633
H 26.6851 8.56719 3.02898
H 14.8622 3.648 0.46256
H 10.8961 5.03252 1.05029
C 20.1785 3.14557 0.474137
C 21.1932 4.08158 0.644559
C 18.9577 3.29305 3.26866
C 19.7086 5.59323 3.30736
C 20.9247 5.44203 0.526038
C 18.6992 4.65943 3.04406
C 8.40699 7.86346 1.6391
C 9.11429 9.03457 1.3534
C 7.02071 7.84548 1.51998
C 3.74797 2.73738 0.898816
C 5.14412 2.75712 0.974761
C 6.32717 9.01017 1.1693
C 29.7408 6.25014 2.6928
C 29.8634 7.62214 2.46406
C 28.5134 5.71887 3.07182
C 27.5286 7.9152 2.93016
C 28.7528 8.45966 2.56621
C 27.3827 6.54561 3.15281
C 16.7737 9.63205 1.1713
C 13.8598 3.47953 0.798761
C 15.4393 9.36746 1.50407
C 11.6218 4.25392 1.14163
C 12.9409 4.52415 0.801579
C 11.2082 2.9768 1.53481

K_POINTS automatic
4 4 4 0 0 0