&control
   title = 'CHNO'
   calculation = 'vc-relax'
   nstep = 1000
   restart_mode = 'from_scratch'
   pseudo_dir = '/home/c/cmpm4/Pseudo/SSSP'
   outdir = './outdir/'
   etot_conv_thr = 1.0D-5
   forc_conv_thr = 1.0D-5
/

&system
   ibrav = 0
   nat = 68
   ntyp = 4.0
   ecutwfc = 60.00
   ecutrho = 480.00
   occupations = 'smearing'
   degauss = 0.01
   vdw_corr = 'grimme-d3'
   dftd3_version = 6
/

&electrons
conv_thr = 1.D-6
mixing_beta = 0.5D0
diagonalization = 'david'
/

&ions
ion_dynamics = 'bfgs'
/

&cell
cell_dynamics = 'bfgs'
press_conv_thr = 0.1
cell_factor = 3.0
/

ATOMIC_SPECIES
   H  1.008  H.pbe-rrkjus_psl.1.0.0.UPF
   C  12.011 C.pbe-n-kjpaw_psl.1.0.0.UPF
   N  14.00  N.pbe-n-radius_5.UPF
   O  16.00  O.pbe-n-kjpaw_psl.0.1.UPF

CELL_PARAMETERS angstrom
5.017282672726874 0.0 0.0
-1.70754018994114 5.391495453660794 0.0
-9.12522029422705 13.1082533023827 33.16830906395934
ATOMIC_POSITIONS angstrom
O 0.442101 6.17957 13.6854
O 1.04145 5.53448 15.7362
O -0.836775 3.13404 9.8103
O -1.17938 5.34599 9.96724
O -1.33198 7.90042 12.2381
O 3.89453 1.88243 5.43468
O 2.73315 6.53147 7.4683
O -8.28719 17.2864 34.6887
O -6.95117 14.1032 34.824
O 2.08687 3.57549 3.93186
O -5.15632 11.7754 21.9959
O -4.63099 11.0055 24.0242
O -0.517338 9.54618 18.3187
O -2.58855 10.3201 18.0019
O -0.268734 8.03002 20.5028
O -3.55422 16.0618 30.2957
O -8.02434 15.323 32.3303
O -4.90649 12.9574 26.3854
O -3.57138 9.77435 26.5157
O -3.65548 12.3604 28.797
N -1.87436 7.65979 16.292
N -1.71949 7.7348 14.9604
N 1.23983 5.49777 14.4519
N -1.11142 4.17815 10.5361
N 1.63683 3.40865 8.00007
N 1.74419 3.43655 6.66198
N 2.97239 6.5654 6.19003
N -8.56016 18.3361 35.407
N -2.43245 13.2685 24.562
N -2.31044 13.3102 23.2254
N -4.38094 11.0532 22.7484
N -1.69981 9.80052 18.7984
N -4.10528 12.1986 32.8657
N -3.99695 12.2259 31.5277
N -7.78576 15.3546 31.0519
N -5.17886 14.0088 27.1015
H -3.81799 9.21534 15.7542
H 2.0028 5.44012 11.8714
H -0.323752 4.93578 7.47689
H 0.387954 1.10403 3.59636
H -2.6711 9.41551 24.0335
H -3.62749 11.0271 20.1742
H -6.06365 13.7276 32.3411
H -7.06225 15.2795 28.458
C -2.563 8.53262 14.1412
C -3.61512 9.28225 14.6945
C -2.32268 8.59169 12.7578
C 2.59743 4.80024 12.5114
C 2.31904 4.72613 13.8862
C -1.38895 4.04429 11.9391
C 0.888489 4.22678 5.84858
C -0.151231 4.98364 6.41304
C 1.10437 4.27185 4.4611
C -0.708937 5.86663 4.23214
C -0.964121 5.80338 5.61214
C 0.315123 5.10847 3.64847
C -1.44375 8.72434 22.4111
C -2.48798 9.47433 22.9719
C -1.21002 8.7844 21.027
C -3.02753 10.3744 20.7943
C -3.29636 10.2956 22.171
C -1.98071 9.64171 20.208
C -4.85271 13.0151 30.7133
C -5.89197 13.7732 31.2769
C -4.63759 13.0577 29.3256
C -6.4511 14.6519 29.0946
C -6.70534 14.5914 30.4749
C -5.42746 13.8926 28.5118

K_POINTS automatic
4 4 4 0 0 0