&control
   title = 'CHNO'
   calculation = 'vc-relax'
   nstep = 1000
   restart_mode = 'from_scratch'
   pseudo_dir = '/home/c/cmpm4/Pseudo/SSSP'
   outdir = './outdir/'
   etot_conv_thr = 1.0D-5
   forc_conv_thr = 1.0D-5
/

&system
   ibrav = 0
   nat = 68
   ntyp = 4.0
   ecutwfc = 60.00
   ecutrho = 480.00
   occupations = 'smearing'
   degauss = 0.01
   vdw_corr = 'grimme-d3'
   dftd3_version = 6
/

&electrons
conv_thr = 1.D-6
mixing_beta = 0.5D0
diagonalization = 'david'
/

&ions
ion_dynamics = 'bfgs'
/

&cell
cell_dynamics = 'bfgs'
press_conv_thr = 0.1
cell_factor = 3.0
/

ATOMIC_SPECIES
   H  1.008  H.pbe-rrkjus_psl.1.0.0.UPF
   C  12.011 C.pbe-n-kjpaw_psl.1.0.0.UPF
   N  14.00  N.pbe-n-radius_5.UPF
   O  16.00  O.pbe-n-kjpaw_psl.0.1.UPF

CELL_PARAMETERS angstrom
10.40651762254076 0.0 0.0
-16.4717929786275 18.06293094635084 0.0
-4.84828421655861 2.54518344185416 4.46408749048364
ATOMIC_POSITIONS angstrom
O -2.39441 16.6655 2.13409
O -2.45175 18.6318 1.07254
O 0.225807 15.2601 2.72395
O -8.22704 15.0878 3.79748
O 0.383734 17.516 1.1497
O -10.4531 24.6711 2.01352
O 5.65922 8.78263 1.63379
O -7.41593 24.3428 1.48401
O -7.69149 24.0022 3.78765
O 8.51386 8.85224 0.930301
O -5.63108 21.7271 2.94042
O -5.48598 22.2363 0.650086
O -5.51974 15.344 2.51747
O -4.95761 16.9233 3.9879
O -7.00883 16.1088 0.457267
O 2.83389 12.4866 2.73476
O 2.61381 13.1472 0.609474
O -14.5989 24.3045 2.51318
O -13.0671 25.6051 3.4766
O -15.2482 25.0551 0.0280706
N -9.76226 21.5958 1.20543
N -9.87591 20.2585 1.20975
N -2.71328 17.3578 1.07949
N 1.27298 15.8337 3.23948
N -1.15353 12.7781 1.71378
N -1.29927 11.4763 1.42302
N -10.9205 25.6093 1.2424
N -7.41629 24.7856 2.74199
N -13.0179 21.5516 2.30136
N -12.6422 20.6086 3.17906
N -5.68195 21.3798 1.65294
N -5.4752 16.6037 2.83706
N -4.65279 12.5352 1.94158
N -4.31169 11.5595 2.79637
N 2.5806 12.1932 1.4934
N -13.9635 25.4375 2.54967
H -8.62604 21.1392 3.4082
H -3.13794 14.726 0.699943
H -0.00957405 11.7957 3.75237
H -11.7483 23.1833 0.444884
H -11.8492 23.0424 3.96762
H -5.01453 19.2278 3.0698
H -3.48245 13.9519 3.69675
H 3.03517 9.96638 2.91068
C -9.37277 19.4682 2.27642
C -8.72617 20.0629 3.3702
C -9.50721 18.0725 2.22405
C -3.52098 15.3406 -0.103856
C -3.36723 16.7356 -0.0455184
C -9.0164 17.2696 3.27581
C -0.946727 10.4587 2.34748
C -0.283289 10.7696 3.54421
C -1.28187 9.12645 2.06203
C -11.9687 23.9592 -0.27156
C -11.5944 25.2834 0.00956253
C -17.4655 26.1639 2.99294
C -7.03193 18.3747 -0.130333
C -6.68439 19.6997 0.161781
C -6.64771 17.3419 0.741171
C -5.58709 18.9786 2.18794
C -5.9779 20.012 1.32779
C -5.90677 17.6352 1.91555
C -3.6277 11.8259 4.01168
C 1.59517 10.5864 -0.101995
C 1.5253 8.21441 0.40665
C 2.53653 9.77067 1.97068
C 2.24547 10.8442 1.11353
C -14.2875 26.513 1.63743

K_POINTS automatic
4 4 4 0 0 0